Route #1: 79
Route #2: 68 66 67 71 69 93 15 89 26 87 90 92 16 19 21 88 91 13 70
Route #3: 83 85 82 86 84 49 46 34 35 43 42 40 33 37 39 44 63
Route #4: 80 100 29 30 32 96
Route #5: 95 98
Route #6: 62 22 27 14 23 18 41 17 25 28 12 20 52 3 53
Route #7: 75 94 31 99 97 59
Route #8: 51 1 6 55 10 24
Route #9: 48 50 36 60 7
Route #10: 4 5
Route #11: 65 56 61 38 45 47 58 64 8 9 54 2 57
Route #12: 11 72 77 81 74 73 76 78
Cost 1643.5226414104916